NAME: random problem
TYPE: MTSP
COMMENT: MTSP problem for MRS UAV summer school
DIMENSION: 20
NUMBER_OF_ROBOTS: 2
START_TARGET_INDEXES: 1, 2
NEIGHBORHOOD_RADIUS: 2
EDGE_WEIGHT_TYPE: EUC_2D
NODE_COORD_SECTION
1 15.0 -21.0
2 -5.0 -25.0
3 25.4 -24.8
4 8.1 -21.6
5 -15.9 -27.0
6 -12.7 -23.1
7 17.0 9.2
8 -35.1 -7.6
9 -32.3 -2.5
10 -22.1 -17.3
11 -3.4 -19.1
12 15.2 -13.0
13 -17.4 -6.9
14 -0.2 16.3
15 23.8 -2.9
16 -26.9 -19.2
17 27.6 -24.6
18 -17.2 -8.5
19 -5.6 12.1
20 -24.1 -5.8
EOF
